NAME: tsp30-40
TYPE: TSP
DIMENSION: 30
EDGE_WEIGHT_TYPE: EUC_2D
NODE_COORD_SECTION
0 86 21
1 93 89
2 86 12
3 25 70
4 41 51
5 43 75
6 48 20
7 3 1
8 16 66
9 87 57
10 98 73
11 92 35
12 63 30
13 15 84
14 21 95
15 4 9
16 46 40
17 84 74
18 85 44
19 4 11
20 82 30
21 79 55
22 99 61
23 76 7
24 65 46
25 80 52
26 53 22
27 57 15
28 79 99
29 29 71
EOF